region		1 block -5.0 5.0 -5.0 5.0 -5.0 5.0 
create_box	2 1

atom_style	bond
atom_modify	map array sort 10000 3.0

neighbor	0.3 bin
neigh_modify	delay 5

bond_style 	harmonic
bond_coeff	1 100.0 2.5

run 0 